(set-logic QF_SLIA)
(set-option :produce-models true)
(declare-const X String)
; AID\x2FHost\u{3a}Hourskl\x2Esearch\x2Eneed2find\x2EcomHost\u{3a}Host\x3A
(assert (str.in_re X (str.to_re "AID/Host:Hourskl.search.need2find.comHost:Host:\u{0a}")))
; ^[^iIoOqQ'-]{10,17}$
(assert (str.in_re X (re.++ ((_ re.loop 10 17) (re.union (str.to_re "i") (str.to_re "I") (str.to_re "o") (str.to_re "O") (str.to_re "q") (str.to_re "Q") (str.to_re "'") (str.to_re "-"))) (str.to_re "\u{0a}"))))
; ^[a-zA-Z]:(\\|(\\[^\\/\s:*"<>|]+)+)>
(assert (not (str.in_re X (re.++ (re.union (re.range "a" "z") (re.range "A" "Z")) (str.to_re ":") (re.union (str.to_re "\u{5c}") (re.+ (re.++ (str.to_re "\u{5c}") (re.+ (re.union (str.to_re "\u{5c}") (str.to_re "/") (str.to_re ":") (str.to_re "*") (str.to_re "\u{22}") (str.to_re "<") (str.to_re ">") (str.to_re "|") (str.to_re " ") (str.to_re "\u{09}") (str.to_re "\u{0a}") (str.to_re "\u{0c}") (str.to_re "\u{0d}")))))) (str.to_re ">\u{0a}")))))
; PASSW=\s+\x2Fta\x2FNEWS\x2F.*loomcompany\x2Ecom
(assert (str.in_re X (re.++ (str.to_re "PASSW=") (re.+ (re.union (str.to_re " ") (str.to_re "\u{09}") (str.to_re "\u{0a}") (str.to_re "\u{0c}") (str.to_re "\u{0d}"))) (str.to_re "/ta/NEWS/") (re.* re.allchar) (str.to_re "loomcompany.com\u{0a}"))))
; ^([a-zA-Z0-9-\,\s]{2,64})$
(assert (not (str.in_re X (re.++ ((_ re.loop 2 64) (re.union (re.range "a" "z") (re.range "A" "Z") (re.range "0" "9") (str.to_re "-") (str.to_re ",") (str.to_re " ") (str.to_re "\u{09}") (str.to_re "\u{0a}") (str.to_re "\u{0c}") (str.to_re "\u{0d}"))) (str.to_re "\u{0a}")))))
(assert (> (str.len X) 10))
(check-sat)
